% Logging successfully configured
%%%mzn-stat: initTime=0.030488711
%%%mzn-stat: objective=998
%%%mzn-stat: nodes=574
%%%mzn-stat: restarts=0
%%%mzn-stat: peakDepth=177
%%%mzn-stat: solveTime=0.039252437
%%%mzn-stat: variables=469
%%%mzn-stat: propagators=1519
%%%mzn-stat: failures=236
%%%mzn-stat: propagations=134590
%%%mzn-stat: nogoods=236
%%%mzn-stat: numAtomicConstraintsPropagated=0
%%%mzn-stat: circuitNumber1226PropagationsThatFoundConflict=131
%%%mzn-stat: circuitNumber1226TotalFixedEdgesAtConflict=4647
%%%mzn-stat: circuitNumber1226NumberOfConflicts=131
%%%mzn-stat: circuitNumber1226PropagationsThatPruned=195
%%%mzn-stat: circuitNumber1226PropagationsTotal=688
%%%mzn-stat: AverageConflictSize=11.245762711864407
%%%mzn-stat: NumUnitNogoodsLearned=0
%%%mzn-stat: AverageLearnedNogoodLength=13.932203389830509
%%%mzn-stat: AverageBacktrackAmount=0
%%%mzn-stat: AverageLbd=7.165254237288136
%%%mzn-stat: 2AutonomousSearchNumBackupCalled=165
%%%mzn-stat: 2AutonomousSearchNumPredicatesRemoved=0
%%%mzn-stat: 2AutonomousSearchNumCalls=166
%%%mzn-stat: 2AutonomousSearchNumPredicatesAdded=2347
%%%mzn-stat: 2AutonomousSearchAverageSizeOfHeap=14.13855421686747
%%%mzn-stat: 2AutonomousSearchNumAssignedPredicatesEncountered=2347
%%%mzn-stat-end
maxleg = 998;
succ = array1d(1..50,[3, 12, 36, 8, 14, 32, 20, 44, 37, 22, 48, 49, 15, 19, 40, 13, 2, 9, 33, 23, 43, 35, 45, 47, 21, 1, 39, 31, 18, 11, 5, 46, 34, 30, 26, 7, 42, 17, 50, 4, 29, 6, 10, 24, 27, 25, 38, 16, 41, 28]);
% time elapsed: 10.93 s
----------
%%%mzn-stat: initTime=0.030488711
%%%mzn-stat: objective=547
%%%mzn-stat: nodes=994
%%%mzn-stat: restarts=0
%%%mzn-stat: peakDepth=177
%%%mzn-stat: solveTime=0.073966672
%%%mzn-stat: variables=469
%%%mzn-stat: propagators=1519
%%%mzn-stat: failures=387
%%%mzn-stat: propagations=206679
%%%mzn-stat: nogoods=387
%%%mzn-stat: numAtomicConstraintsPropagated=0
%%%mzn-stat: circuitNumber1226PropagationsThatFoundConflict=245
%%%mzn-stat: circuitNumber1226TotalFixedEdgesAtConflict=9798
%%%mzn-stat: circuitNumber1226NumberOfConflicts=245
%%%mzn-stat: circuitNumber1226PropagationsThatPruned=275
%%%mzn-stat: circuitNumber1226PropagationsTotal=1150
%%%mzn-stat: AverageConflictSize=18.713178294573645
%%%mzn-stat: NumUnitNogoodsLearned=0
%%%mzn-stat: AverageLearnedNogoodLength=13.994832041343669
%%%mzn-stat: AverageBacktrackAmount=0
%%%mzn-stat: AverageLbd=8.064599483204134
%%%mzn-stat: 2AutonomousSearchNumBackupCalled=311
%%%mzn-stat: 2AutonomousSearchNumPredicatesRemoved=0
%%%mzn-stat: 2AutonomousSearchNumCalls=313
%%%mzn-stat: 2AutonomousSearchNumPredicatesAdded=4266
%%%mzn-stat: 2AutonomousSearchAverageSizeOfHeap=15.217252396166135
%%%mzn-stat: 2AutonomousSearchNumAssignedPredicatesEncountered=4763
%%%mzn-stat-end
maxleg = 547;
succ = array1d(1..50,[3, 12, 36, 8, 14, 32, 46, 44, 29, 26, 16, 49, 15, 19, 40, 48, 13, 5, 33, 23, 4, 10, 45, 38, 31, 1, 39, 50, 18, 11, 43, 42, 34, 30, 22, 7, 9, 47, 28, 2, 35, 37, 21, 24, 27, 25, 20, 17, 41, 6]);
% time elapsed: 10.96 s
----------
%%%mzn-stat: initTime=0.030488711
%%%mzn-stat: objective=545
%%%mzn-stat: nodes=1829
%%%mzn-stat: restarts=0
%%%mzn-stat: peakDepth=177
%%%mzn-stat: solveTime=0.114070604
%%%mzn-stat: variables=469
%%%mzn-stat: propagators=1519
%%%mzn-stat: failures=643
%%%mzn-stat: propagations=361157
%%%mzn-stat: nogoods=643
%%%mzn-stat: numAtomicConstraintsPropagated=0
%%%mzn-stat: circuitNumber1226PropagationsThatFoundConflict=288
%%%mzn-stat: circuitNumber1226TotalFixedEdgesAtConflict=11022
%%%mzn-stat: circuitNumber1226NumberOfConflicts=288
%%%mzn-stat: circuitNumber1226PropagationsThatPruned=409
%%%mzn-stat: circuitNumber1226PropagationsTotal=1985
%%%mzn-stat: AverageConflictSize=12.783825816485226
%%%mzn-stat: NumUnitNogoodsLearned=0
%%%mzn-stat: AverageLearnedNogoodLength=12.581648522550545
%%%mzn-stat: AverageBacktrackAmount=0
%%%mzn-stat: AverageLbd=6.589424572317263
%%%mzn-stat: 2AutonomousSearchNumBackupCalled=460
%%%mzn-stat: 2AutonomousSearchNumPredicatesRemoved=0
%%%mzn-stat: 2AutonomousSearchNumCalls=463
%%%mzn-stat: 2AutonomousSearchNumPredicatesAdded=6889
%%%mzn-stat: 2AutonomousSearchAverageSizeOfHeap=16.531317494600433
%%%mzn-stat: 2AutonomousSearchNumAssignedPredicatesEncountered=7654
%%%mzn-stat-end
maxleg = 545;
succ = array1d(1..50,[3, 15, 36, 8, 18, 32, 20, 21, 37, 26, 30, 2, 16, 5, 40, 17, 48, 29, 14, 47, 25, 10, 45, 38, 43, 35, 23, 50, 9, 33, 28, 46, 34, 19, 41, 22, 42, 44, 27, 13, 49, 6, 31, 4, 1, 7, 24, 11, 12, 39]);
% time elapsed: 11.00 s
----------
%%%mzn-stat: initTime=0.030488711
%%%mzn-stat: objective=498
%%%mzn-stat: nodes=2061
%%%mzn-stat: restarts=0
%%%mzn-stat: peakDepth=177
%%%mzn-stat: solveTime=0.118151401
%%%mzn-stat: variables=469
%%%mzn-stat: propagators=1519
%%%mzn-stat: failures=657
%%%mzn-stat: propagations=374115
%%%mzn-stat: nogoods=657
%%%mzn-stat: numAtomicConstraintsPropagated=0
%%%mzn-stat: circuitNumber1226PropagationsThatFoundConflict=292
%%%mzn-stat: circuitNumber1226TotalFixedEdgesAtConflict=11179
%%%mzn-stat: circuitNumber1226NumberOfConflicts=292
%%%mzn-stat: circuitNumber1226PropagationsThatPruned=417
%%%mzn-stat: circuitNumber1226PropagationsTotal=2068
%%%mzn-stat: AverageConflictSize=12.572298325722983
%%%mzn-stat: NumUnitNogoodsLearned=0
%%%mzn-stat: AverageLearnedNogoodLength=12.503805175038051
%%%mzn-stat: AverageBacktrackAmount=0
%%%mzn-stat: AverageLbd=6.549467275494672
%%%mzn-stat: 2AutonomousSearchNumBackupCalled=615
%%%mzn-stat: 2AutonomousSearchNumPredicatesRemoved=0
%%%mzn-stat: 2AutonomousSearchNumCalls=619
%%%mzn-stat: 2AutonomousSearchNumPredicatesAdded=7524
%%%mzn-stat: 2AutonomousSearchAverageSizeOfHeap=17.037156704361873
%%%mzn-stat: 2AutonomousSearchNumAssignedPredicatesEncountered=10546
%%%mzn-stat-end
maxleg = 498;
succ = array1d(1..50,[3, 15, 36, 8, 18, 42, 46, 44, 37, 26, 30, 2, 16, 5, 40, 17, 48, 29, 14, 23, 4, 10, 27, 38, 31, 35, 45, 50, 9, 33, 43, 7, 34, 19, 41, 22, 39, 47, 28, 13, 49, 32, 21, 24, 1, 25, 20, 11, 12, 6]);
% time elapsed: 11.01 s
----------
%%%mzn-stat: initTime=0.030488711
%%%mzn-stat: objective=428
%%%mzn-stat: nodes=2258
%%%mzn-stat: restarts=0
%%%mzn-stat: peakDepth=177
%%%mzn-stat: solveTime=0.121011572
%%%mzn-stat: variables=469
%%%mzn-stat: propagators=1519
%%%mzn-stat: failures=666
%%%mzn-stat: propagations=383353
%%%mzn-stat: nogoods=666
%%%mzn-stat: numAtomicConstraintsPropagated=0
%%%mzn-stat: circuitNumber1226PropagationsThatFoundConflict=295
%%%mzn-stat: circuitNumber1226TotalFixedEdgesAtConflict=11295
%%%mzn-stat: circuitNumber1226NumberOfConflicts=295
%%%mzn-stat: circuitNumber1226PropagationsThatPruned=424
%%%mzn-stat: circuitNumber1226PropagationsTotal=2129
%%%mzn-stat: AverageConflictSize=12.462462462462462
%%%mzn-stat: NumUnitNogoodsLearned=0
%%%mzn-stat: AverageLearnedNogoodLength=12.48048048048048
%%%mzn-stat: AverageBacktrackAmount=0
%%%mzn-stat: AverageLbd=6.5225225225225225
%%%mzn-stat: 2AutonomousSearchNumBackupCalled=758
%%%mzn-stat: 2AutonomousSearchNumPredicatesRemoved=0
%%%mzn-stat: 2AutonomousSearchNumCalls=763
%%%mzn-stat: 2AutonomousSearchNumPredicatesAdded=8161
%%%mzn-stat: 2AutonomousSearchAverageSizeOfHeap=17.61205766710354
%%%mzn-stat: 2AutonomousSearchNumAssignedPredicatesEncountered=13438
%%%mzn-stat-end
maxleg = 428;
succ = array1d(1..50,[3, 15, 36, 8, 31, 32, 46, 44, 18, 26, 30, 2, 16, 29, 40, 17, 48, 5, 14, 23, 4, 10, 27, 38, 43, 35, 45, 50, 9, 33, 28, 7, 34, 19, 41, 22, 42, 47, 37, 13, 49, 6, 21, 24, 1, 25, 20, 11, 12, 39]);
% time elapsed: 11.01 s
----------
==========
% time elapsed: 11.02 s
%%%mzn-stat: initTime=0.030488711
%%%mzn-stat: objective=428
%%%mzn-stat: nodes=2400
%%%mzn-stat: restarts=0
%%%mzn-stat: peakDepth=177
%%%mzn-stat: solveTime=0.129146608
%%%mzn-stat: variables=469
%%%mzn-stat: propagators=1519
%%%mzn-stat: failures=717
%%%mzn-stat: propagations=409473
%%%mzn-stat: nogoods=717
%%%mzn-stat: numAtomicConstraintsPropagated=0
%%%mzn-stat: circuitNumber1226PropagationsThatFoundConflict=304
%%%mzn-stat: circuitNumber1226TotalFixedEdgesAtConflict=11437
%%%mzn-stat: circuitNumber1226NumberOfConflicts=304
%%%mzn-stat: circuitNumber1226PropagationsThatPruned=450
%%%mzn-stat: circuitNumber1226PropagationsTotal=2308
%%%mzn-stat: AverageConflictSize=11.847977684797769
%%%mzn-stat: NumUnitNogoodsLearned=1
%%%mzn-stat: AverageLearnedNogoodLength=12.192468619246862
%%%mzn-stat: AverageBacktrackAmount=0
%%%mzn-stat: AverageLbd=6.292887029288703
%%%mzn-stat: 2AutonomousSearchNumBackupCalled=758
%%%mzn-stat: 2AutonomousSearchNumPredicatesRemoved=0
%%%mzn-stat: 2AutonomousSearchNumCalls=763
%%%mzn-stat: 2AutonomousSearchNumPredicatesAdded=10252
%%%mzn-stat: 2AutonomousSearchAverageSizeOfHeap=17.61205766710354
%%%mzn-stat: 2AutonomousSearchNumAssignedPredicatesEncountered=13438
%%%mzn-stat-end
